635516 4312
637476 3640
637476 5656
637672 6580
637700 11956
637896 4564
637924 7672
637952 5656
637980 12376
637980 13300
637980 13972
638092 9688
638148 3220
638148 11032
638232 2548
638232 2968
638232 8596
638232 11284
638316 6580
638316 11704
638400 7672
638456 3640
638512 10360
638596 2548
638652 1624
638876 4984
639240 5656
639268 7000
639380 11956
639576 8344
639632 6328
639688 2548
640164 2296
640164 3220
640360 2548
640500 7924
640556 3640
640724 3892
640752 7000
640836 2296
641368 4984
641424 7672
641452 7924
641508 6328
641536 6580
641536 7000
642124 5908
642180 3892
642236 5236
642320 4564
635698 1003576
637350 1004920
638960 998200
638960 998452
638960 998872
638960 999124
638960 999544
638960 999796
638960 1000216
638960 1000468
